\ENCODING=ISO-8859-1
\Problem name: ILOG.CPLEX

Minimize
 obj: gamma_0_1_0 + gamma_0_1_1 + gamma_0_0_0 + gamma_0_0_1 + 0.05 a_0
      + 0.05 a_1 + 0.05 a_2 + 0.05 a_3 + 0.05 a_4 + 0.05 a_5
Subject To
 C1_0#0:       s_0_1 + s_0_0  = 1
 _2_0_0_0_0#1: 15.0843333333333 gamma_0_1_0 - 15.0843333333333 s_0_1 + g_0
               - 2 g_1 - 0.333333333333333 g_2 - 2 g_3 + 0.25 g_4 - g_5
               >= -15.0833333333333
 _2_1_1_0_3#2: 17.001 gamma_0_1_0 - 17.001 s_0_1 + 3 g_0 - 3 g_1 - 3 g_3
               - 3 g_5 >= -17
 _2_2_2_0_5#3: 11.1676666666667 gamma_0_1_0 - 11.1676666666667 s_0_1 + g_0
               + 0.333333333333333 g_2 - 0.5 g_4 - g_5 >= -11.1666666666667
 _2_3_3_1_1#4: 11.1676666666667 gamma_0_1_1 - 11.1676666666667 s_0_1 + 2 g_1
               + 0.666666666666667 g_2 + 2 g_3 - 0.75 g_4 >= -11.1666666666667
 _2_4_4_0_1#5: 11.001 gamma_0_0_0 - 11.001 s_0_0 - g_0 + 2 g_1
               + 0.333333333333333 g_2 + 2 g_3 - 0.25 g_4 + g_5 >= -11
 _2_5_5_0_3#6: 17.001 gamma_0_0_0 - 17.001 s_0_0 + 2 g_0 - g_1
               + 0.333333333333333 g_2 - g_3 - 0.25 g_4 - 2 g_5 >= -17
 _2_6_6_0_5#7: 11.1676666666667 gamma_0_0_0 - 11.1676666666667 s_0_0 + 2 g_1
               + 0.666666666666667 g_2 + 2 g_3 - 0.75 g_4 >= -11.1666666666667
 c9#8:         a_0 - g_0 >= 0
 c10#9:        a_0 + g_0 >= 0
 c11#10:       a_1 - g_1 >= 0
 c12#11:       a_1 + g_1 >= 0
 c13#12:       a_2 - g_2 >= 0
 c14#13:       a_2 + g_2 >= 0
 c15#14:       a_3 - g_3 >= 0
 c16#15:       a_3 + g_3 >= 0
 c17#16:       a_4 - g_4 >= 0
 c18#17:       a_4 + g_4 >= 0
 c19#18:       a_5 - g_5 >= 0
 c20#19:       a_5 + g_5 >= 0
Bounds
 0 <= gamma_0_1_0 <= 1
 0 <= gamma_0_1_1 <= 1
 0 <= gamma_0_0_0 <= 1
 0 <= gamma_0_0_1 <= 1
 0 <= a_0 <= 1
 0 <= a_1 <= 1
 0 <= a_2 <= 1
 0 <= a_3 <= 1
 0 <= a_4 <= 1
 0 <= a_5 <= 1
 0 <= s_0_1 <= 1
 0 <= s_0_0 <= 1
-1 <= g_0 <= 1
-1 <= g_1 <= 1
-1 <= g_2 <= 1
-1 <= g_3 <= 1
-1 <= g_4 <= 1
-1 <= g_5 <= 1
Generals
 gamma_0_1_0  gamma_0_1_1  gamma_0_0_0  gamma_0_0_1  a_0  a_1  a_2  a_3  a_4 
 a_5  s_0_1  s_0_0 
End
